c FILE /home/rafael/Documents/HappySet/MIHS/inputs/happygen/output/graph_d_regular_k5_p0.4_v100_20241127_084047.txt
c SOURCE This is a d-regular graph formed for the happy graph colouring problem.
c DESCRIPTION It was generated using the problem generator of Rhyd Lewis
c
c GRAPH STATS
c Seed                             = -1079746044
c Number of Nodes                  = 100
c Number of colours k              = 5
c Number of pre-assignments        = 40
c Degree of all vertices           = 6
c Density                          = 0.0606061
c 
c The degrees of nodes 1 to 100, respectively, are as follows 
c [6, 6, 6, 6, 6, 6, 6, 6, 6, 6, 6, 6, 6, 6, 6, 6, 6, 6, 6, 6, 6, 6, 6, 6, 6, 6, 
c  6, 6, 6, 6, 6, 6, 6, 6, 6, 6, 6, 6, 6, 6, 6, 6, 6, 6, 6, 6, 6, 6, 6, 6, 6, 
c  6, 6, 6, 6, 6, 6, 6, 6, 6, 6, 6, 6, 6, 6, 6, 6, 6, 6, 6, 6, 6, 6, 6, 6, 6, 
c  6, 6, 6, 6, 6, 6, 6, 6, 6, 6, 6, 6, 6, 6, 6, 6, 6, 6, 6, 6, 6, 6, 6, 6] 
c  
p edge 100 300 5
e 1 15
e 1 30
e 1 61
e 1 62
e 1 68
e 1 93
e 2 10
e 2 24
e 2 29
e 2 34
e 2 64
e 2 73
e 3 32
e 3 37
e 3 65
e 3 69
e 3 82
e 3 90
e 4 41
e 4 50
e 4 55
e 4 71
e 4 84
e 4 87
e 5 23
e 5 41
e 5 47
e 5 62
e 5 67
e 5 81
e 6 12
e 6 20
e 6 75
e 6 85
e 6 87
e 6 89
e 7 17
e 7 38
e 7 39
e 7 49
e 7 59
e 7 71
e 8 12
e 8 42
e 8 85
e 8 87
e 8 95
e 8 98
e 9 10
e 9 16
e 9 18
e 9 36
e 9 45
e 9 55
e 10 27
e 10 50
e 10 89
e 10 94
e 11 42
e 11 61
e 11 66
e 11 82
e 11 84
e 11 100
e 12 15
e 12 86
e 12 87
e 12 97
e 13 29
e 13 31
e 13 33
e 13 54
e 13 67
e 13 89
e 14 31
e 14 33
e 14 67
e 14 75
e 14 86
e 14 97
e 15 21
e 15 31
e 15 58
e 15 61
e 16 21
e 16 26
e 16 35
e 16 51
e 16 60
e 17 48
e 17 50
e 17 61
e 17 63
e 17 68
e 18 28
e 18 37
e 18 47
e 18 73
e 18 93
e 19 23
e 19 25
e 19 30
e 19 79
e 19 82
e 19 98
e 20 23
e 20 41
e 20 61
e 20 64
e 20 100
e 21 44
e 21 48
e 21 65
e 21 86
e 22 26
e 22 45
e 22 54
e 22 79
e 22 81
e 22 90
e 23 49
e 23 53
e 23 73
e 24 40
e 24 43
e 24 72
e 24 89
e 24 99
e 25 46
e 25 65
e 25 88
e 25 97
e 25 98
e 26 41
e 26 45
e 26 65
e 26 88
e 27 34
e 27 36
e 27 51
e 27 53
e 27 56
e 28 32
e 28 37
e 28 66
e 28 74
e 28 80
e 29 47
e 29 51
e 29 81
e 29 98
e 30 32
e 30 42
e 30 62
e 30 91
e 31 47
e 31 49
e 31 95
e 32 55
e 32 83
e 32 88
e 33 48
e 33 57
e 33 80
e 33 95
e 34 56
e 34 64
e 34 83
e 34 86
e 35 43
e 35 51
e 35 60
e 35 70
e 35 76
e 36 46
e 36 49
e 36 94
e 36 99
e 37 74
e 37 93
e 37 100
e 38 65
e 38 72
e 38 84
e 38 92
e 38 96
e 39 42
e 39 45
e 39 57
e 39 76
e 39 99
e 40 43
e 40 45
e 40 51
e 40 82
e 40 83
e 41 53
e 41 78
e 42 57
e 42 84
e 43 54
e 43 58
e 43 75
e 44 47
e 44 48
e 44 55
e 44 62
e 44 73
e 45 75
e 46 83
e 46 92
e 46 95
e 46 96
e 47 64
e 48 66
e 48 88
e 49 61
e 49 92
e 50 66
e 50 75
e 50 90
e 51 92
e 52 64
e 52 73
e 52 76
e 52 81
e 52 94
e 52 99
e 53 66
e 53 76
e 53 77
e 54 78
e 54 80
e 54 91
e 55 72
e 55 81
e 56 59
e 56 62
e 56 72
e 56 89
e 57 63
e 57 80
e 57 97
e 58 69
e 58 85
e 58 87
e 58 90
e 59 70
e 59 74
e 59 77
e 59 96
e 60 63
e 60 85
e 60 94
e 60 97
e 62 83
e 63 79
e 63 96
e 63 97
e 64 95
e 65 79
e 66 72
e 67 71
e 67 74
e 67 96
e 68 78
e 68 84
e 68 89
e 68 91
e 69 74
e 69 79
e 69 93
e 69 94
e 70 74
e 70 77
e 70 85
e 70 92
e 71 76
e 71 85
e 71 92
e 72 79
e 73 99
e 75 81
e 76 91
e 77 78
e 77 90
e 77 94
e 78 82
e 78 91
e 80 88
e 80 98
e 82 100
e 83 88
e 84 100
e 86 87
e 86 100
e 90 96
e 91 95
e 93 98
e 93 99
n 1 3
n 2 2
n 4 5
n 7 3
n 8 2
n 9 4
n 14 4
n 16 4
n 17 3
n 20 5
n 24 2
n 28 3
n 32 3
n 37 3
n 38 3
n 41 5
n 45 4
n 47 1
n 49 3
n 53 5
n 54 3
n 56 3
n 57 3
n 59 3
n 60 4
n 67 4
n 68 3
n 69 4
n 70 3
n 76 5
n 79 4
n 80 3
n 81 5
n 82 3
n 86 4
n 88 3
n 90 3
n 92 3
n 94 4
n 95 2
